p cnf 1886
-11 -162
-12 -59
-13 -62
-14 -65
-15 -68
-16 -71
-17 -189
-18 -195
-19 -201
-20 -207
-21 -213
-22 -238
-23 -257
-24 -275
-25 -285
-26 -304
-27 -323
-28 -341
-29 -351
-30 -370
-31 -389
-32 -407
-33 -417
-34 -436
-35 -455
-36 -473
-37 -483
-38 -502
-39 -521
-40 -539
-41 -549
-42 -595
-43 -601
-44 -607
-45 1
-45 -17
-1 17 45
-46 2
-46 -18
-2 18 46
-47 3
-47 -19
-3 19 47
-48 4
-48 -20
-4 20 48
-49 5
-49 -21
-5 21 49
-50 -45
-50 46
45 -46 50
-51 -45
-51 -50
45 50 51
-52 47
-52 51
-47 -51 52
-53 51
-53 -52
-51 52 53
-54 48
-54 53
-48 -53 54
-55 53
-55 -54
-53 54 55
-56 49
-56 55
-49 -55 56
-57 -11
-57 45
11 -45 57
-58 11
-58 12
-11 -12 58
-59 -57
-59 -58
57 58 59
-60 -11
-60 50
11 -50 60
-61 11
-61 13
-11 -13 61
-62 -60
-62 -61
60 61 62
-63 -11
-63 52
11 -52 63
-64 11
-64 14
-11 -14 64
-65 -63
-65 -64
63 64 65
-66 -11
-66 54
11 -54 66
-67 11
-67 15
-11 -15 67
-68 -66
-68 -67
66 67 68
-69 -11
-69 56
11 -56 69
-70 11
-70 16
-11 -16 70
-71 -69
-71 -70
69 70 71
-72 1
-72 -59
-1 59 72
-73 2
-73 -62
-2 62 73
-74 3
-74 -65
-3 65 74
-75 4
-75 -68
-4 68 75
-76 5
-76 -71
-5 71 76
-77 22
-77 -23
-22 23 77
-78 -24
-78 -25
24 25 78
-79 77
-79 78
-77 -78 79
-80 -22
-80 -23
22 23 80
-81 -24
-81 25
24 -25 81
-82 80
-82 81
-80 -81 82
-83 -79
-83 -82
79 82 83
-84 72
-84 -83
-72 83 84
-85 26
-85 -27
-26 27 85
-86 -28
-86 -29
28 29 86
-87 85
-87 86
-85 -86 87
-88 -26
-88 -27
26 27 88
-89 -28
-89 29
28 -29 89
-90 88
-90 89
-88 -89 90
-91 -87
-91 -90
87 90 91
-92 73
-92 -91
-73 91 92
-93 30
-93 -31
-30 31 93
-94 -32
-94 -33
32 33 94
-95 93
-95 94
-93 -94 95
-96 -30
-96 -31
30 31 96
-97 -32
-97 33
32 -33 97
-98 96
-98 97
-96 -97 98
-99 -95
-99 -98
95 98 99
-100 74
-100 -99
-74 99 100
-101 34
-101 -35
-34 35 101
-102 -36
-102 -37
36 37 102
-103 101
-103 102
-101 -102 103
-104 -34
-104 -35
34 35 104
-105 -36
-105 37
36 -37 105
-106 104
-106 105
-104 -105 106
-107 -103
-107 -106
103 106 107
-108 75
-108 -107
-75 107 108
-109 38
-109 -39
-38 39 109
-110 -40
-110 -41
40 41 110
-111 109
-111 110
-109 -110 111
-112 -38
-112 -39
38 39 112
-113 -40
-113 41
40 -41 113
-114 112
-114 113
-112 -113 114
-115 -111
-115 -114
111 114 115
-116 76
-116 -115
-76 115 116
-117 -84
-117 -92
84 92 117
-118 -100
-118 -108
100 108 118
-119 117
-119 118
-117 -118 119
-120 -116
-120 119
116 -119 120
-121 -22
-121 23
22 -23 121
-122 24
-122 -25
-24 25 122
-123 121
-123 122
-121 -122 123
-124 24
-124 25
-24 -25 124
-125 77
-125 124
-77 -124 125
-126 -123
-126 -125
123 125 126
-127 72
-127 -126
-72 126 127
-128 -26
-128 27
26 -27 128
-129 28
-129 -29
-28 29 129
-130 128
-130 129
-128 -129 130
-131 28
-131 29
-28 -29 131
-132 85
-132 131
-85 -131 132
-133 -130
-133 -132
130 132 133
-134 73
-134 -133
-73 133 134
-135 -30
-135 31
30 -31 135
-136 32
-136 -33
-32 33 136
-137 135
-137 136
-135 -136 137
-138 32
-138 33
-32 -33 138
-139 93
-139 138
-93 -138 139
-140 -137
-140 -139
137 139 140
-141 74
-141 -140
-74 140 141
-142 -34
-142 35
34 -35 142
-143 36
-143 -37
-36 37 143
-144 142
-144 143
-142 -143 144
-145 36
-145 37
-36 -37 145
-146 101
-146 145
-101 -145 146
-147 -144
-147 -146
144 146 147
-148 75
-148 -147
-75 147 148
-149 -38
-149 39
38 -39 149
-150 40
-150 -41
-40 41 150
-151 149
-151 150
-149 -150 151
-152 40
-152 41
-40 -41 152
-153 109
-153 152
-109 -152 153
-154 -151
-154 -153
151 153 154
-155 76
-155 -154
-76 154 155
-156 -127
-156 -134
127 134 156
-157 -141
-157 -148
141 148 157
-158 156
-158 157
-156 -157 158
-159 -155
-159 158
155 -158 159
-160 11
-160 159
-11 -159 160
-161 120
-161 160
-120 -160 161
-162 120
-162 -161
-120 161 162
-163 -17
-163 18
17 -18 163
-164 -17
-164 -163
17 163 164
-165 19
-165 164
-19 -164 165
-166 164
-166 -165
-164 165 166
-167 20
-167 166
-20 -166 167
-168 166
-168 -167
-166 167 168
-169 21
-169 168
-21 -168 169
-170 80
-170 124
-80 -124 170
-171 72
-171 170
-72 -170 171
-172 88
-172 131
-88 -131 172
-173 73
-173 172
-73 -172 173
-174 96
-174 138
-96 -138 174
-175 74
-175 174
-74 -174 175
-176 104
-176 145
-104 -145 176
-177 75
-177 176
-75 -176 177
-178 112
-178 152
-112 -152 178
-179 76
-179 178
-76 -178 179
-180 -171
-180 -173
171 173 180
-181 -175
-181 -177
175 177 181
-182 180
-182 181
-180 -181 182
-183 -179
-183 182
179 -182 183
-184 77
-184 122
-77 -122 184
-185 72
-185 184
-72 -184 185
-186 17
-186 -183
-17 183 186
-187 17
-187 -186
-17 186 187
-188 -185
-188 187
185 -187 188
-189 -185
-189 -188
185 188 189
-190 85
-190 129
-85 -129 190
-191 73
-191 190
-73 -190 191
-192 163
-192 -183
-163 183 192
-193 18
-193 -192
-18 192 193
-194 -191
-194 193
191 -193 194
-195 -191
-195 -194
191 194 195
-196 93
-196 136
-93 -136 196
-197 74
-197 196
-74 -196 197
-198 165
-198 -183
-165 183 198
-199 19
-199 -198
-19 198 199
-200 -197
-200 199
197 -199 200
-201 -197
-201 -200
197 200 201
-202 101
-202 143
-101 -143 202
-203 75
-203 202
-75 -202 203
-204 167
-204 -183
-167 183 204
-205 20
-205 -204
-20 204 205
-206 -203
-206 205
203 -205 206
-207 -203
-207 -206
203 206 207
-208 109
-208 150
-109 -150 208
-209 76
-209 208
-76 -208 209
-210 169
-210 -183
-169 183 210
-211 21
-211 -210
-21 210 211
-212 -209
-212 211
209 -211 212
-213 -209
-213 -212
209 212 213
-214 -17
-214 -18
17 18 214
-215 -19
-215 -20
19 20 215
-216 214
-216 215
-214 -215 216
-217 -21
-217 216
21 -216 217
-218 42
-218 -43
-42 43 218
-219 44
-219 218
-44 -218 219
-220 -23
-220 -80
23 80 220
-221 24
-221 80
-24 -80 221
-222 -24
-222 -220
24 220 222
-223 -221
-223 -222
221 222 223
-224 -6
-224 22
6 -22 224
-225 22
-225 -224
-22 224 225
-226 23
-226 -225
-23 225 226
-227 6
-227 -22
-6 22 227
-228 -23
-228 227
23 -227 228
-229 -121
-229 -228
121 228 229
-230 24
-230 226
-24 -226 230
-231 -24
-231 -229
24 229 231
-232 -230
-232 -231
230 231 232
-233 25
-233 -223
-25 223 233
-234 -25
-234 -232
25 232 234
-235 -233
-235 -234
233 234 235
-236 72
-236 -235
-72 235 236
-237 22
-237 -72
-22 72 237
-238 -236
-238 -237
236 237 238
-239 22
-239 217
-22 -217 239
-240 -23
-240 239
23 -239 240
-241 -121
-241 -240
121 240 241
-242 24
-242 77
-24 -77 242
-243 -24
-243 -241
24 241 243
-244 -242
-244 -243
242 243 244
-245 23
-245 -226
-23 226 245
-246 -22
-246 -219
22 219 246
-247 23
-247 246
-23 -246 247
-248 -77
-248 -247
77 247 248
-249 24
-249 -245
-24 245 249
-250 -24
-250 -248
24 248 250
-251 -249
-251 -250
249 250 251
-252 25
-252 -244
-25 244 252
-253 -25
-253 -251
25 251 253
-254 -252
-254 -253
252 253 254
-255 72
-255 -254
-72 254 255
-256 23
-256 -72
-23 72 256
-257 -255
-257 -256
255 256 257
-258 22
-258 -217
-22 217 258
-259 22
-259 23
-22 -23 259
-260 -23
-260 258
23 -258 260
-261 -259
-261 -260
259 260 261
-262 -23
-262 24
23 -24 262
-263 -24
-263 -261
24 261 263
-264 -262
-264 -263
262 263 264
-265 -22
-265 219
22 -219 265
-266 -22
-266 -265
22 265 266
-267 23
-267 -266
-23 266 267
-268 -24
-268 267
24 -267 268
-269 -249
-269 -268
249 268 269
-270 25
-270 -264
-25 264 270
-271 -25
-271 -269
25 269 271
-272 -270
-272 -271
270 271 272
-273 72
-273 -272
-72 272 273
-274 24
-274 -72
-24 72 274
-275 -273
-275 -274
273 274 275
-276 24
-276 -262
-24 262 276
-277 6
-277 22
-6 -22 277
-278 23
-278 277
-23 -277 278
-279 24
-279 278
-24 -278 279
-280 25
-280 -276
-25 276 280
-281 -25
-281 279
25 -279 281
-282 -280
-282 -281
280 281 282
-283 72
-283 -282
-72 282 283
-284 25
-284 -72
-25 72 284
-285 -283
-285 -284
283 284 285
-286 -27
-286 -88
27 88 286
-287 28
-287 88
-28 -88 287
-288 -28
-288 -286
28 286 288
-289 -287
-289 -288
287 288 289
-290 -7
-290 26
7 -26 290
-291 26
-291 -290
-26 290 291
-292 27
-292 -291
-27 291 292
-293 7
-293 -26
-7 26 293
-294 -27
-294 293
27 -293 294
-295 -128
-295 -294
128 294 295
-296 28
-296 292
-28 -292 296
-297 -28
-297 -295
28 295 297
-298 -296
-298 -297
296 297 298
-299 29
-299 -289
-29 289 299
-300 -29
-300 -298
29 298 300
-301 -299
-301 -300
299 300 301
-302 73
-302 -301
-73 301 302
-303 26
-303 -73
-26 73 303
-304 -302
-304 -303
302 303 304
-305 26
-305 217
-26 -217 305
-306 -27
-306 305
27 -305 306
-307 -128
-307 -306
128 306 307
-308 28
-308 85
-28 -85 308
-309 -28
-309 -307
28 307 309
-310 -308
-310 -309
308 309 310
-311 27
-311 -292
-27 292 311
-312 -26
-312 -219
26 219 312
-313 27
-313 312
-27 -312 313
-314 -85
-314 -313
85 313 314
-315 28
-315 -311
-28 311 315
-316 -28
-316 -314
28 314 316
-317 -315
-317 -316
315 316 317
-318 29
-318 -310
-29 310 318
-319 -29
-319 -317
29 317 319
-320 -318
-320 -319
318 319 320
-321 73
-321 -320
-73 320 321
-322 27
-322 -73
-27 73 322
-323 -321
-323 -322
321 322 323
-324 26
-324 -217
-26 217 324
-325 26
-325 27
-26 -27 325
-326 -27
-326 324
27 -324 326
-327 -325
-327 -326
325 326 327
-328 -27
-328 28
27 -28 328
-329 -28
-329 -327
28 327 329
-330 -328
-330 -329
328 329 330
-331 -26
-331 219
26 -219 331
-332 -26
-332 -331
26 331 332
-333 27
-333 -332
-27 332 333
-334 -28
-334 333
28 -333 334
-335 -315
-335 -334
315 334 335
-336 29
-336 -330
-29 330 336
-337 -29
-337 -335
29 335 337
-338 -336
-338 -337
336 337 338
-339 73
-339 -338
-73 338 339
-340 28
-340 -73
-28 73 340
-341 -339
-341 -340
339 340 341
-342 28
-342 -328
-28 328 342
-343 7
-343 26
-7 -26 343
-344 27
-344 343
-27 -343 344
-345 28
-345 344
-28 -344 345
-346 29
-346 -342
-29 342 346
-347 -29
-347 345
29 -345 347
-348 -346
-348 -347
346 347 348
-349 73
-349 -348
-73 348 349
-350 29
-350 -73
-29 73 350
-351 -349
-351 -350
349 350 351
-352 -31
-352 -96
31 96 352
-353 32
-353 96
-32 -96 353
-354 -32
-354 -352
32 352 354
-355 -353
-355 -354
353 354 355
-356 -8
-356 30
8 -30 356
-357 30
-357 -356
-30 356 357
-358 31
-358 -357
-31 357 358
-359 8
-359 -30
-8 30 359
-360 -31
-360 359
31 -359 360
-361 -135
-361 -360
135 360 361
-362 32
-362 358
-32 -358 362
-363 -32
-363 -361
32 361 363
-364 -362
-364 -363
362 363 364
-365 33
-365 -355
-33 355 365
-366 -33
-366 -364
33 364 366
-367 -365
-367 -366
365 366 367
-368 74
-368 -367
-74 367 368
-369 30
-369 -74
-30 74 369
-370 -368
-370 -369
368 369 370
-371 30
-371 217
-30 -217 371
-372 -31
-372 371
31 -371 372
-373 -135
-373 -372
135 372 373
-374 32
-374 93
-32 -93 374
-375 -32
-375 -373
32 373 375
-376 -374
-376 -375
374 375 376
-377 31
-377 -358
-31 358 377
-378 -30
-378 -219
30 219 378
-379 31
-379 378
-31 -378 379
-380 -93
-380 -379
93 379 380
-381 32
-381 -377
-32 377 381
-382 -32
-382 -380
32 380 382
-383 -381
-383 -382
381 382 383
-384 33
-384 -376
-33 376 384
-385 -33
-385 -383
33 383 385
-386 -384
-386 -385
384 385 386
-387 74
-387 -386
-74 386 387
-388 31
-388 -74
-31 74 388
-389 -387
-389 -388
387 388 389
-390 30
-390 -217
-30 217 390
-391 30
-391 31
-30 -31 391
-392 -31
-392 390
31 -390 392
-393 -391
-393 -392
391 392 393
-394 -31
-394 32
31 -32 394
-395 -32
-395 -393
32 393 395
-396 -394
-396 -395
394 395 396
-397 -30
-397 219
30 -219 397
-398 -30
-398 -397
30 397 398
-399 31
-399 -398
-31 398 399
-400 -32
-400 399
32 -399 400
-401 -381
-401 -400
381 400 401
-402 33
-402 -396
-33 396 402
-403 -33
-403 -401
33 401 403
-404 -402
-404 -403
402 403 404
-405 74
-405 -404
-74 404 405
-406 32
-406 -74
-32 74 406
-407 -405
-407 -406
405 406 407
-408 32
-408 -394
-32 394 408
-409 8
-409 30
-8 -30 409
-410 31
-410 409
-31 -409 410
-411 32
-411 410
-32 -410 411
-412 33
-412 -408
-33 408 412
-413 -33
-413 411
33 -411 413
-414 -412
-414 -413
412 413 414
-415 74
-415 -414
-74 414 415
-416 33
-416 -74
-33 74 416
-417 -415
-417 -416
415 416 417
-418 -35
-418 -104
35 104 418
-419 36
-419 104
-36 -104 419
-420 -36
-420 -418
36 418 420
-421 -419
-421 -420
419 420 421
-422 -9
-422 34
9 -34 422
-423 34
-423 -422
-34 422 423
-424 35
-424 -423
-35 423 424
-425 9
-425 -34
-9 34 425
-426 -35
-426 425
35 -425 426
-427 -142
-427 -426
142 426 427
-428 36
-428 424
-36 -424 428
-429 -36
-429 -427
36 427 429
-430 -428
-430 -429
428 429 430
-431 37
-431 -421
-37 421 431
-432 -37
-432 -430
37 430 432
-433 -431
-433 -432
431 432 433
-434 75
-434 -433
-75 433 434
-435 34
-435 -75
-34 75 435
-436 -434
-436 -435
434 435 436
-437 34
-437 217
-34 -217 437
-438 -35
-438 437
35 -437 438
-439 -142
-439 -438
142 438 439
-440 36
-440 101
-36 -101 440
-441 -36
-441 -439
36 439 441
-442 -440
-442 -441
440 441 442
-443 35
-443 -424
-35 424 443
-444 -34
-444 -219
34 219 444
-445 35
-445 444
-35 -444 445
-446 -101
-446 -445
101 445 446
-447 36
-447 -443
-36 443 447
-448 -36
-448 -446
36 446 448
-449 -447
-449 -448
447 448 449
-450 37
-450 -442
-37 442 450
-451 -37
-451 -449
37 449 451
-452 -450
-452 -451
450 451 452
-453 75
-453 -452
-75 452 453
-454 35
-454 -75
-35 75 454
-455 -453
-455 -454
453 454 455
-456 34
-456 -217
-34 217 456
-457 34
-457 35
-34 -35 457
-458 -35
-458 456
35 -456 458
-459 -457
-459 -458
457 458 459
-460 -35
-460 36
35 -36 460
-461 -36
-461 -459
36 459 461
-462 -460
-462 -461
460 461 462
-463 -34
-463 219
34 -219 463
-464 -34
-464 -463
34 463 464
-465 35
-465 -464
-35 464 465
-466 -36
-466 465
36 -465 466
-467 -447
-467 -466
447 466 467
-468 37
-468 -462
-37 462 468
-469 -37
-469 -467
37 467 469
-470 -468
-470 -469
468 469 470
-471 75
-471 -470
-75 470 471
-472 36
-472 -75
-36 75 472
-473 -471
-473 -472
471 472 473
-474 36
-474 -460
-36 460 474
-475 9
-475 34
-9 -34 475
-476 35
-476 475
-35 -475 476
-477 36
-477 476
-36 -476 477
-478 37
-478 -474
-37 474 478
-479 -37
-479 477
37 -477 479
-480 -478
-480 -479
478 479 480
-481 75
-481 -480
-75 480 481
-482 37
-482 -75
-37 75 482
-483 -481
-483 -482
481 482 483
-484 -39
-484 -112
39 112 484
-485 40
-485 112
-40 -112 485
-486 -40
-486 -484
40 484 486
-487 -485
-487 -486
485 486 487
-488 -10
-488 38
10 -38 488
-489 38
-489 -488
-38 488 489
-490 39
-490 -489
-39 489 490
-491 10
-491 -38
-10 38 491
-492 -39
-492 491
39 -491 492
-493 -149
-493 -492
149 492 493
-494 40
-494 490
-40 -490 494
-495 -40
-495 -493
40 493 495
-496 -494
-496 -495
494 495 496
-497 41
-497 -487
-41 487 497
-498 -41
-498 -496
41 496 498
-499 -497
-499 -498
497 498 499
-500 76
-500 -499
-76 499 500
-501 38
-501 -76
-38 76 501
-502 -500
-502 -501
500 501 502
-503 38
-503 217
-38 -217 503
-504 -39
-504 503
39 -503 504
-505 -149
-505 -504
149 504 505
-506 40
-506 109
-40 -109 506
-507 -40
-507 -505
40 505 507
-508 -506
-508 -507
506 507 508
-509 39
-509 -490
-39 490 509
-510 -38
-510 -219
38 219 510
-511 39
-511 510
-39 -510 511
-512 -109
-512 -511
109 511 512
-513 40
-513 -509
-40 509 513
-514 -40
-514 -512
40 512 514
-515 -513
-515 -514
513 514 515
-516 41
-516 -508
-41 508 516
-517 -41
-517 -515
41 515 517
-518 -516
-518 -517
516 517 518
-519 76
-519 -518
-76 518 519
-520 39
-520 -76
-39 76 520
-521 -519
-521 -520
519 520 521
-522 38
-522 -217
-38 217 522
-523 38
-523 39
-38 -39 523
-524 -39
-524 522
39 -522 524
-525 -523
-525 -524
523 524 525
-526 -39
-526 40
39 -40 526
-527 -40
-527 -525
40 525 527
-528 -526
-528 -527
526 527 528
-529 -38
-529 219
38 -219 529
-530 -38
-530 -529
38 529 530
-531 39
-531 -530
-39 530 531
-532 -40
-532 531
40 -531 532
-533 -513
-533 -532
513 532 533
-534 41
-534 -528
-41 528 534
-535 -41
-535 -533
41 533 535
-536 -534
-536 -535
534 535 536
-537 76
-537 -536
-76 536 537
-538 40
-538 -76
-40 76 538
-539 -537
-539 -538
537 538 539
-540 40
-540 -526
-40 526 540
-541 10
-541 38
-10 -38 541
-542 39
-542 541
-39 -541 542
-543 40
-543 542
-40 -542 543
-544 41
-544 -540
-41 540 544
-545 -41
-545 543
41 -543 545
-546 -544
-546 -545
544 545 546
-547 76
-547 -546
-76 546 547
-548 41
-548 -76
-41 76 548
-549 -547
-549 -548
547 548 549
-550 78
-550 259
-78 -259 550
-551 72
-551 550
-72 -550 551
-552 86
-552 325
-86 -325 552
-553 73
-553 552
-73 -552 553
-554 94
-554 391
-94 -391 554
-555 74
-555 554
-74 -554 555
-556 102
-556 457
-102 -457 556
-557 75
-557 556
-75 -556 557
-558 110
-558 523
-110 -523 558
-559 76
-559 558
-76 -558 559
-560 -551
-560 -553
551 553 560
-561 -555
-561 -557
555 557 561
-562 560
-562 561
-560 -561 562
-563 -559
-563 562
559 -562 563
-564 81
-564 121
-81 -121 564
-565 72
-565 564
-72 -564 565
-566 89
-566 128
-89 -128 566
-567 73
-567 566
-73 -566 567
-568 97
-568 135
-97 -135 568
-569 74
-569 568
-74 -568 569
-570 105
-570 142
-105 -142 570
-571 75
-571 570
-75 -570 571
-572 113
-572 149
-113 -149 572
-573 76
-573 572
-76 -572 573
-574 -565
-574 -567
565 567 574
-575 -569
-575 -571
569 571 575
-576 574
-576 575
-574 -575 576
-577 -573
-577 576
573 -576 577
-578 -42
-578 43
42 -43 578
-579 -218
-579 -578
218 578 579
-580 42
-580 43
-42 -43 580
-581 44
-581 -580
-44 580 581
-582 -44
-582 580
44 -580 582
-583 -581
-583 -582
581 582 583
-584 44
-584 580
-44 -580 584
-585 -42
-585 -43
42 43 585
-586 -580
-586 -585
580 585 586
-587 44
-587 -585
-44 585 587
-588 -44
-588 585
44 -585 588
-589 -587
-589 -588
587 588 589
-590 -42
-590 -577
42 577 590
-591 42
-591 577
-42 -577 591
-592 -590
-592 -591
590 591 592
-593 -42
-593 -563
42 563 593
-594 563
-594 -592
-563 592 594
-595 -593
-595 -594
593 594 595
-596 -577
-596 -586
577 586 596
-597 43
-597 577
-43 -577 597
-598 -596
-598 -597
596 597 598
-599 -563
-599 -579
563 579 599
-600 563
-600 -598
-563 598 600
-601 -599
-601 -600
599 600 601
-602 -577
-602 -589
577 589 602
-603 44
-603 577
-44 -577 603
-604 -602
-604 -603
602 603 604
-605 -563
-605 -583
563 583 605
-606 563
-606 -604
-563 604 606
-607 -605
-607 -606
605 606 607
-608 122
-608 259
-122 -259 608
-609 -17
-609 608
17 -608 609
-610 129
-610 325
-129 -325 610
-611 -18
-611 610
18 -610 611
-612 136
-612 391
-136 -391 612
-613 -19
-613 612
19 -612 613
-614 143
-614 457
-143 -457 614
-615 -20
-615 614
20 -614 615
-616 150
-616 523
-150 -523 616
-617 -21
-617 616
21 -616 617
-618 609
-618 -611
-609 611 618
-619 -609
-619 611
609 -611 619
-620 -618
-620 -619
618 619 620
-621 609
-621 611
-609 -611 621
-622 -613
-622 -620
613 620 622
-623 613
-623 620
-613 -620 623
-624 -622
-624 -623
622 623 624
-625 613
-625 -620
-613 620 625
-626 621
-626 -625
-621 625 626
-627 -621
-627 625
621 -625 627
-628 -626
-628 -627
626 627 628
-629 621
-629 625
-621 -625 629
-630 -615
-630 -624
615 624 630
-631 615
-631 624
-615 -624 631
-632 -630
-632 -631
630 631 632
-633 615
-633 -624
-615 624 633
-634 -629
-634 -632
629 632 634
-635 629
-635 632
-629 -632 635
-636 -634
-636 -635
634 635 636
-637 629
-637 -632
-629 632 637
-638 -633
-638 -637
633 637 638
-639 -628
-639 638
628 -638 639
-640 628
-640 -638
-628 638 640
-641 -639
-641 -640
639 640 641
-642 -628
-642 -638
628 638 642
-643 -617
-643 -636
617 636 643
-644 617
-644 636
-617 -636 644
-645 -643
-645 -644
643 644 645
-646 617
-646 -636
-617 636 646
-647 -641
-647 -646
641 646 647
-648 641
-648 646
-641 -646 648
-649 -647
-649 -648
647 648 649
-650 -641
-650 646
641 -646 650
-651 642
-651 -650
-642 650 651
-652 -642
-652 650
642 -650 652
-653 -651
-653 -652
651 652 653
-654 642
-654 650
-642 -650 654
-655 -649
-655 -653
649 653 655
-656 -217
-656 -219
217 219 656
-657 -563
-657 584
563 -584 657
-658 -577
-658 588
577 -588 658
-659 -655
-659 -657
655 657 659
-660 -656
-660 -658
656 658 660
-661 659
-661 660
-659 -660 661
-661
